894
0	18	40	92	188	226	276	410	439	462
0	57	80	132	206	294	348	410	513	567
0	30	226	294	379	439	528	619	716	797
0	91	348	439	520	540	567	631	715	797
0	91	109	143	150	244	360	456	510	518
0	137	201	278	341	439	513	574	589	638
0	80	119	381	599	674	715	759	785	872
132	206	308	341	353	528	615	694	716	724
30	92	188	210	215	278	311	321	355	416
147	353	456	520	615	638	656	671	759	804
